IALGO = 48

ISTART = 0
ICHARG = 2

MAGMOM=5*0

PREC = High
ENCUT = 400

ISMEAR=-5

EDIFF = 1e-7
EDIFFG = 1e-5

IBRION=-1
NSW=0
NPAR = 4
NBANDS=36
PSTRESS = 0

LORBIT = 11
