ISTART = 0
ICHARG = 11

#LSORBIT=.TRUE.
MAGMOM=5*0

ISMEAR=0
SIGMA=0.01
PREC = High
ENCUT = 400
EDIFF = 1e-7
EDIFFG = 1e-5

IBRION=-1
NSW=0
NPAR=4
LORBIT = 11

