K-Path Generated by VASPKIT.
   3
Line-Mode
Reciprocal
0   0   0
0.5 0.5 0.5
