Primitive Cell
  1.000000
    2.06383867570851    1.19155781498427    9.60137990856857
   -2.06383867570851    1.19155781498427    9.60137990856857
    0.00000000000000   -2.38311562996854    9.60137990856857
  Bi  Se
   2   3
DIRECT
    0.3993202839577563    0.3993202839577563    0.3993202839577563    Bi1
    0.6006797160422436    0.6006797160422438    0.6006797160422436    Bi2
   -0.0000000000000000    0.0000000000000000    0.0000000000000000    Se1
    0.2125273796425041    0.2125273796425041    0.2125273796425041    Se2
    0.7874726203574958    0.7874726203574958    0.7874726203574959    Se3
